(set-logic HORN)
(declare-datatypes ((Nat_0 0)) (((Z_0 ) (S_0 (unS_0 Nat_0)))))
(declare-fun diseqNat_0 (Nat_0 Nat_0) Bool)
(declare-fun unS_2 (Nat_0 Nat_0) Bool)
(declare-fun isZ_0 (Nat_0) Bool)
(declare-fun isS_0 (Nat_0) Bool)
(assert (forall ((x_7 Nat_0) (x_6 Nat_0))
	(=> (= x_7 (S_0 x_6))
	    (unS_2 x_6 x_7))))
(assert (isZ_0 Z_0))
(assert (forall ((x_8 Nat_0))
	(isS_0 (S_0 x_8))))
(assert (forall ((x_9 Nat_0))
	(diseqNat_0 Z_0 (S_0 x_9))))
(assert (forall ((x_10 Nat_0))
	(diseqNat_0 (S_0 x_10) Z_0)))
(assert (forall ((x_11 Nat_0) (x_12 Nat_0))
	(=> (diseqNat_0 x_11 x_12)
	    (diseqNat_0 (S_0 x_11) (S_0 x_12)))))
(declare-fun LemmaP_1 (Nat_0) Bool)
(declare-fun LemmaP_0 (Nat_0) Bool)
(assert (forall ((x_1 Nat_0))
	(=>	(and (diseqNat_0 x_1 (S_0 (S_0 Z_0)))
			(= x_1 Z_0))
		(LemmaP_1 x_1))))
(assert (forall ((x_1 Nat_0))
	(=>	(and (diseqNat_0 x_1 Z_0)
			(= x_1 Z_0))
		(LemmaP_0 x_1))))
(assert (forall ((x_2 Nat_0))
	(=>	(and (diseqNat_0 (S_0 (S_0 x_2)) (S_0 (S_0 Z_0)))
			(= x_2 (S_0 (S_0 Z_0)))
			(= x_2 Z_0))
		(LemmaP_1 (S_0 (S_0 x_2))))))
(assert (forall ((x_2 Nat_0))
	(=>	(and (diseqNat_0 (S_0 (S_0 x_2)) (S_0 (S_0 Z_0)))
			(LemmaP_1 x_2)
			(= x_2 Z_0))
		(LemmaP_1 (S_0 (S_0 x_2))))))
(assert (forall ((x_2 Nat_0))
	(=>	(and (diseqNat_0 (S_0 (S_0 x_2)) (S_0 (S_0 Z_0)))
			(= x_2 (S_0 (S_0 Z_0)))
			(LemmaP_0 x_2))
		(LemmaP_1 (S_0 (S_0 x_2))))))
(assert (forall ((x_2 Nat_0))
	(=>	(and (diseqNat_0 (S_0 (S_0 x_2)) (S_0 (S_0 Z_0)))
			(LemmaP_1 x_2)
			(LemmaP_0 x_2))
		(LemmaP_1 (S_0 (S_0 x_2))))))
(assert (forall ((x_2 Nat_0))
	(=>	(and (diseqNat_0 (S_0 (S_0 x_2)) Z_0)
			(= x_2 (S_0 (S_0 Z_0)))
			(= x_2 Z_0))
		(LemmaP_0 (S_0 (S_0 x_2))))))
(assert (forall ((x_2 Nat_0))
	(=>	(and (diseqNat_0 (S_0 (S_0 x_2)) Z_0)
			(LemmaP_1 x_2)
			(= x_2 Z_0))
		(LemmaP_0 (S_0 (S_0 x_2))))))
(assert (forall ((x_2 Nat_0))
	(=>	(and (diseqNat_0 (S_0 (S_0 x_2)) Z_0)
			(= x_2 (S_0 (S_0 Z_0)))
			(LemmaP_0 x_2))
		(LemmaP_0 (S_0 (S_0 x_2))))))
(assert (forall ((x_2 Nat_0))
	(=>	(and (diseqNat_0 (S_0 (S_0 x_2)) Z_0)
			(LemmaP_1 x_2)
			(LemmaP_0 x_2))
		(LemmaP_0 (S_0 (S_0 x_2))))))
(assert (forall ((x_3 Nat_0))
	(=>	(and (= x_3 (S_0 (S_0 Z_0)))
			(= x_3 Z_0)
			(= x_3 (S_0 Z_0)))
		false)))
(assert (forall ((x_3 Nat_0))
	(=>	(and (LemmaP_1 x_3)
			(= x_3 Z_0)
			(= x_3 (S_0 Z_0)))
		false)))
(assert (forall ((x_3 Nat_0))
	(=>	(and (= x_3 (S_0 (S_0 Z_0)))
			(LemmaP_0 x_3)
			(= x_3 (S_0 Z_0)))
		false)))
(assert (forall ((x_3 Nat_0))
	(=>	(and (LemmaP_1 x_3)
			(LemmaP_0 x_3)
			(= x_3 (S_0 Z_0)))
		false)))
(check-sat)
